111186
16, 38, 2, 30, 35, 75, 11, 82, 32, 40, 74, 58, 77, 20, 9, 21, 71, 66, 36, 80, 62, 70, 14, 67, 76, 26, 54, 46, 45, 73, 64, 29, 10, 1, 37, 13, 18, 48, 31, 24, 19, 5, 22, 44, 68, 59, 65, 4, 50, 52, 41, 39, 63, 53, 8, 83, 28, 79, 6, 61, 78, 69, 15, 25, 42, 23, 55, 12, 43, 3, 57, 49, 34, 47, 60, 81, 72, 51, 56, 17, 7, 33, 27
